%chk=dcbod_chair_full_b3lyp-dcp.chk
%mem=4GB
%nprocshared=32
# opt=maxstep=5 b3lyp/gen int=grid=ultrafine
scf=(xqc,maxcycle=200,noincore)

m2g_dcbod_chair

0 1
 C                  1.40308176    0.56737819    0.14087229
 C                  1.29512613   -0.85206651    0.16489644
 C                  2.30370920   -1.60814842   -0.47057207
 C                  3.38516318   -1.00974407   -1.10772529
 C                  3.48119462    0.36716250   -1.14169782
 C                  2.49754327    1.13817492   -0.53398851
 C                  0.20434602   -1.76963279    0.74372295
 C                 -1.03866675   -1.66649358   -0.16034097
 C                 -1.95096903   -0.56756538    0.41621758
 C                 -1.84182960    0.84828091    0.39798625
 C                 -2.83621224    1.60452733    1.05773996
 C                 -3.88557845    1.00438919    1.74831975
 C                 -3.98496740   -0.37465713    1.77247635
 C                 -3.03675262   -1.14380520    1.10207202
 C                 -0.76061413    1.76477980   -0.20222009
 C                  0.48459736    1.67279822    0.69948030
 H                  4.13741397   -1.61458046   -1.57092738
 H                  4.30630472    0.83740045   -1.63384133
 H                  0.61637489   -2.75627004    0.71822768
 H                 -0.08116921   -1.52998522    1.74711883
 H                 -1.61639919   -2.56539787   -0.12089311
 H                 -0.72025563   -1.49253121   -1.16817302
 H                 -4.61060546    1.60649203    2.25595159
 H                 -4.78489819   -0.84823762    2.30085131
 H                 -0.48169289    1.51615337   -1.20464385
 H                 -1.17407023    2.75242127   -0.18349526
 H                  1.05877120    2.57512196    0.64972056
 H                  0.16760952    1.50942945    1.70804580
 C                  2.21450989   -3.14659452   -0.46314013
 O                  3.09652605   -3.82724001   -1.04944650
 N                  1.10576173   -3.82293996    0.22582820
 H                  0.81502777   -3.27036187    1.00652386
 C                  2.60585362    2.67046225   -0.60232580
 O                  1.71325450    3.38814205   -0.08066933
 N                  3.75047540    3.29306317   -1.27876647
 H                  4.55999629    2.71878102   -1.15546653
 C                 -2.76067433    3.14274391    1.00347255
 O                 -3.64727900    3.83823780    1.56205444
 N                 -1.65238982    3.79251338    0.28863594
 H                 -0.82502110    3.24056451    0.39799842
 C                 -3.17354639   -2.67603293    1.10384524
 O                 -2.35098202   -3.37866244    0.46200910
 N                 -4.26217681   -3.31856664    1.85134602
 H                 -4.47272773   -2.77092192    2.66053930
 C                  1.55891622   -5.14359283    0.69362868
 C                  2.16626871   -5.27327765    1.95036078
 C                  1.38570554   -6.27465189   -0.11885063
 C                  2.61199242   -6.52895324    2.38832260
 H                  2.29103772   -4.41351654    2.57450400
 C                  1.82422351   -7.53114195    0.32355936
 H                  0.91876681   -6.17901463   -1.07634857
 C                  2.44163517   -7.65663428    1.57535229
 H                  3.08209698   -6.62475020    3.34311616
 H                  1.68840907   -8.39453176   -0.29366741
 H                  2.78344477   -8.61316722    1.91082157
 C                 -1.42302901    5.14238034    0.82828320
 C                 -0.91151005    6.14152863   -0.01251294
 C                 -1.71336467    5.43752873    2.16933104
 C                 -0.68957450    7.43406972    0.48217728
 H                 -0.69085057    5.91615381   -1.03544823
 C                 -1.49430930    6.73305693    2.66338523
 H                 -2.10185071    4.67829650    2.81438663
 C                 -0.98269899    7.73027861    1.81995738
 H                 -0.29712504    8.19298579   -0.16192193
 H                 -1.71661507    6.96124031    3.68442202
 H                 -0.81569648    8.71680368    2.19817542
 C                  3.99331668    4.62174243   -0.70610053
 C                  4.55846177    5.62585087   -1.50108434
 C                  3.65768327    4.88601571    0.62861125
 C                  4.78070917    6.90011633   -0.96700123
 H                  4.81986556    5.41803063   -2.51780181
 C                  3.87469574    6.16300645    1.16278340
 H                  3.23511494    4.11480777    1.23846243
 C                  4.43571067    7.17007547    0.36539970
 H                  5.21315420    7.66750620   -1.57604455
 H                  3.61159004    6.36914139    2.17980806
 H                  4.60090045    8.14573323    0.77275727
 C                 -3.84483717   -4.67078277    2.25318182
 C                 -4.12681837   -5.76160737    1.41958526
 C                 -3.16510079   -4.87338338    3.46259788
 C                 -3.73597803   -7.05370274    1.79582352
 H                 -4.64190207   -5.60750050    0.49443688
 C                 -2.76892371   -6.16694558    3.83523435
 H                 -2.94767504   -4.04237713    4.10113878
 C                 -3.05744648   -7.25585346    3.00443668
 H                 -3.95611213   -7.88663530    1.16055504
 H                 -2.24551083   -6.32217489    4.75619326
 H                 -2.76041790   -8.24242304    3.29310058

C H 0
6-31G(d)
****

C 0
C 3 0
F an up
4
 2 0.204353696 0.000103405
 2 0.106552301 -0.000068461
 2 0.103629038 0.001279009
 2 0.010449572 -0.000001033
S-F
2
 2 0.043390720 0.000020668
 2 0.117045600 0.056519710
P-F
2
 2 0.064526518 -0.000013344
 2 0.123222363 -0.021488594
D-F
1
 2 0.066381605 -0.010148271
O 0
O 3 0
F an up
3
 2 0.229218952 0.002292912
 2 0.097343149 -0.000574884
 2 0.008021004 -0.000000082
S-F
1
 2 0.197820377 -0.000157070
P-F
1
 2 0.106145399 -0.000206907
D-F
1
 2 0.057393876 -0.000113868
N 0
N 3 0
F an up
3
 2 0.124536834 0.000375000
 2 0.030918400 -0.000033729
 2 0.005040192 -0.000000020
S-F
1
 2 0.066204887 -0.000950120
P-F
1
 2 0.056034679 -0.000534017
D-F
1
 2 0.013845593 -0.000127395
H 0
H 1 0
P an up
3
 2 0.112790145 0.000226456
 2 0.043193200 -0.000068835
 2 0.005733838 -0.000000390
S-P
1
 2 0.184641561 -0.000052055