%chk=dcbod_twistboat_b3lyp-dcp.chk
%mem=4GB
%nprocshared=32
# opt=maxstep=5 b3lyp/gen int=grid=ultrafine
scf=(xqc,maxcycle=200,noincore)

m2g_dcbod_twistboat

0 1
 C                 -1.42577000   -0.83529400    0.33601900
 C                 -2.10268800   -1.43407700   -0.73503200
 C                 -2.91147400   -0.69661000   -1.59866400
 C                 -3.05502300    0.67511900   -1.40147700
 C                 -2.38396900    1.28622900   -0.34358300
 C                 -1.56907900    0.55516500    0.52916900
 C                 -0.83454100    1.27287900    1.63855200
 C                  0.60971700    1.72596700    1.26194300
 C                  1.42576900    0.83529200    0.33602400
 C                  2.10268900    1.43408100   -0.73502200
 C                  2.91147700    0.69662000   -1.59865700
 C                  3.05502500   -0.67511000   -1.40147900
 C                  2.38396900   -1.28622700   -0.34359000
 C                  1.56907700   -0.55516900    0.52916500
 C                  0.83453900   -1.27289000    1.63854500
 C                 -0.60972000   -1.72597300    1.26193500
 H                 -1.99342800   -2.50438200   -0.89254900
 H                 -3.42343100   -1.19213900   -2.41851400
 H                 -3.68282200    1.26530300   -2.06277900
 H                 -2.49370100    2.35665000   -0.18457900
 H                 -0.81077000    0.64487300    2.53313000
 H                 -1.39537100    2.17018100    1.92273200
 H                  1.16578500    1.88956000    2.19639400
 H                  0.54010900    2.70896000    0.78463500
 H                  1.99343000    2.50438700   -0.89253300
 H                  3.42343600    1.19215400   -2.41850200
 H                  3.68282500   -1.26529100   -2.06278300
 H                  2.49370000   -2.35664900   -0.18459300
 H                  0.81077100   -0.64489000    2.53312700
 H                  1.39537000   -2.17019400    1.92271700
 H                 -0.54011600   -2.70896600    0.78462600
 H                 -1.16578800   -1.88956700    2.19638700

C H 0
6-31G(d)
****

C 0
C 3 0
F an up
4
 2 0.204353696 0.000103405
 2 0.106552301 -0.000068461
 2 0.103629038 0.001279009
 2 0.010449572 -0.000001033
S-F
2
 2 0.043390720 0.000020668
 2 0.117045600 0.056519710
P-F
2
 2 0.064526518 -0.000013344
 2 0.123222363 -0.021488594
D-F
1
 2 0.066381605 -0.010148271
O 0
O 3 0
F an up
3
 2 0.229218952 0.002292912
 2 0.097343149 -0.000574884
 2 0.008021004 -0.000000082
S-F
1
 2 0.197820377 -0.000157070
P-F
1
 2 0.106145399 -0.000206907
D-F
1
 2 0.057393876 -0.000113868
N 0
N 3 0
F an up
3
 2 0.124536834 0.000375000
 2 0.030918400 -0.000033729
 2 0.005040192 -0.000000020
S-F
1
 2 0.066204887 -0.000950120
P-F
1
 2 0.056034679 -0.000534017
D-F
1
 2 0.013845593 -0.000127395
H 0
H 1 0
P an up
3
 2 0.112790145 0.000226456
 2 0.043193200 -0.000068835
 2 0.005733838 -0.000000390
S-P
1
 2 0.184641561 -0.000052055