%chk=dcbod_twistboat_full_conf1_b3lyp-dcp.chk
%mem=4GB
%nprocshared=32
# opt=maxstep=5 b3lyp/gen int=grid=ultrafine
scf=(xqc,maxcycle=200,noincore)

m2g_dcbod_twistboat

0 1
 C                  1.35322781    1.04727177    0.64645213
 C                  2.01049570    1.67277018   -0.42175200
 C                  2.83849917    0.93311269   -1.27112445
 C                  3.07106722   -0.41700862   -1.00846880
 C                  2.47381224   -1.03122910    0.09713261
 C                  1.58944237   -0.31243135    0.91395432
 C                  0.88867713   -1.01107443    2.09390654
 C                 -0.28940003   -1.87061572    1.57703226
 C                 -1.29944789   -1.03738151    0.76352128
 C                 -2.03148759   -1.68908423   -0.23993849
 C                 -2.92788380   -0.97686087   -1.03535939
 C                 -3.13488373    0.38053924   -0.80617424
 C                 -2.45080855    1.02914745    0.22579734
 C                 -1.51625742    0.33103106    1.00350920
 C                 -0.74279910    1.06767541    2.11207581
 C                  0.40119247    1.90713543    1.49655518
 H                  3.29847682    1.40029103   -2.11688724
 H                  3.70734966   -0.98393254   -1.65218257
 H                  0.53577721   -0.27137004    2.77939995
 H                  1.58375128   -1.65799662    2.59128816
 H                 -0.78918213   -2.30778492    2.41572749
 H                  0.09577002   -2.64005783    0.94175643
 H                 -3.45784379   -1.47327940   -1.82021172
 H                 -3.81826422    0.92678820   -1.41896152
 H                 -0.34710762    0.35128009    2.79656615
 H                 -1.40439361    1.73266738    2.62902558
 H                 -0.02284182    2.65376327    0.86428012
 H                  0.95538940    2.37315411    2.28856489
 C                  1.83950760    3.18697527   -0.66022189
 O                  2.43743033    3.74072031   -1.62028704
 N                  0.99564020    3.99056345    0.22917117
 H                  0.20120466    3.45149352    0.50948767
 C                  2.79798815   -2.50410115    0.38766637
 O                  2.28404142   -3.10145029    1.37261655
 N                  3.71778472   -3.21164725   -0.50873120
 H                  3.66759248   -2.81406075   -1.42435397
 C                 -2.72870261    2.51933660    0.48172824
 O                 -2.11381106    3.14374300    1.38864874
 N                 -3.71987080    3.20806895   -0.35368016
 H                 -3.73914800    2.78990853   -1.25938371
 C                 -1.87118956   -3.20242640   -0.47403440
 O                 -2.54231092   -3.76467372   -1.37732919
 N                 -0.95496782   -4.00191875    0.34517832
 H                 -0.14405477   -3.46074516    0.57315055
 C                  0.56320900    5.20067039   -0.48132327
 C                  0.30095884    6.37153301    0.24168673
 C                  0.42154960    5.18842188   -1.87622151
 C                 -0.10418202    7.53105121   -0.42993152
 H                  0.40870732    6.37797483    1.30649181
 C                  0.01516979    6.34831986   -2.54837983
 H                  0.62225131    4.29358357   -2.42798300
 C                 -0.24110402    7.52142131   -1.82619836
 H                 -0.30582325    8.42543168    0.12200211
 H                 -0.09537053    6.33634412   -3.61317988
 H                 -0.54366501    8.40789770   -2.33982143
 C                 -3.34742146    4.61394718   -0.47131717
 C                 -2.48694004    5.02875208   -1.49826021
 C                 -3.85153074    5.53651753    0.44871126
 C                 -2.11895828    6.37375378   -1.58960559
 H                 -2.11158800    4.32115906   -2.20654502
 C                 -3.48659322    6.88393171    0.35723823
 H                 -4.51597064    5.21028111    1.22337321
 C                 -2.61269413    7.30085815   -0.65773071
 H                 -1.45931102    6.69685955   -2.36957970
 H                 -3.87165857    7.59363545    1.05912118
 H                 -2.32261745    8.32590689   -0.72306542
 C                  3.34076249   -4.62351745   -0.56957745
 C                  3.88964336   -5.52009939    0.34888336
 C                  2.43410543   -5.07028341   -1.54258045
 C                  3.53222362   -6.87229702    0.30372670
 H                  4.58347478   -5.16877322    1.08529153
 C                  2.07979446   -6.42292204   -1.59140934
 H                  2.01381920   -4.38194951   -2.24751278
 C                  2.62499765   -7.32241623   -0.66388818
 H                  3.95042632   -7.56057059    1.00729373
 H                  1.39189313   -6.77308111   -2.33589448
 H                  2.34906365   -8.35326188   -0.69836320
 C                 -0.56753503   -5.20216994   -0.40824487
 C                 -0.28782715   -6.39384986    0.27627672
 C                 -0.48412304   -5.15877331   -1.80711653
 C                  0.05378620   -7.54816540   -0.44025319
 H                 -0.34017148   -6.42280489    1.34687162
 C                 -0.13052316   -6.30948606   -2.52352433
 H                 -0.69303977   -4.24962865   -2.32818601
 C                  0.12922721   -7.50640977   -1.84011354
 H                  0.25725712   -8.46186976    0.08228248
 H                 -0.05898195   -6.27262143   -3.59111482
 H                  0.38207566   -8.38870631   -2.38794447

C H 0
6-31G(d)
****

C 0
C 3 0
F an up
4
 2 0.204353696 0.000103405
 2 0.106552301 -0.000068461
 2 0.103629038 0.001279009
 2 0.010449572 -0.000001033
S-F
2
 2 0.043390720 0.000020668
 2 0.117045600 0.056519710
P-F
2
 2 0.064526518 -0.000013344
 2 0.123222363 -0.021488594
D-F
1
 2 0.066381605 -0.010148271
O 0
O 3 0
F an up
3
 2 0.229218952 0.002292912
 2 0.097343149 -0.000574884
 2 0.008021004 -0.000000082
S-F
1
 2 0.197820377 -0.000157070
P-F
1
 2 0.106145399 -0.000206907
D-F
1
 2 0.057393876 -0.000113868
N 0
N 3 0
F an up
3
 2 0.124536834 0.000375000
 2 0.030918400 -0.000033729
 2 0.005040192 -0.000000020
S-F
1
 2 0.066204887 -0.000950120
P-F
1
 2 0.056034679 -0.000534017
D-F
1
 2 0.013845593 -0.000127395
H 0
H 1 0
P an up
3
 2 0.112790145 0.000226456
 2 0.043193200 -0.000068835
 2 0.005733838 -0.000000390
S-P
1
 2 0.184641561 -0.000052055