%chk=dcbod_chair_b3lyp-dcp.chk
%mem=4GB
%nprocshared=32
# opt=maxstep=5 b3lyp/gen int=grid=ultrafine
scf=(xqc,maxcycle=200,noincore)

m2g_dcbod_chair

0 1
 C                  1.77664000    0.70624200    0.32262800
 C                  1.77664000   -0.70624200    0.32262800
 C                  2.97533100   -1.38159400    0.05940200
 C                  4.16083100   -0.69641600   -0.20608200
 C                  4.16083100    0.69641500   -0.20608400
 C                  2.97533200    1.38159400    0.05940000
 C                  0.51932600   -1.50885900    0.58684800
 C                 -0.51932600   -1.50885900   -0.58684700
 C                 -1.77664000   -0.70624200   -0.32262800
 C                 -1.77664000    0.70624300   -0.32262700
 C                 -2.97533200    1.38159300   -0.05940100
 C                 -4.16083100    0.69641500    0.20608200
 C                 -4.16083100   -0.69641600    0.20608100
 C                 -2.97533200   -1.38159400   -0.05940300
 C                 -0.51932600    1.50886100   -0.58684600
 C                  0.51932700    1.50886000    0.58684800
 H                  2.97667600   -2.46903100    0.06715700
 H                  5.07491300   -1.24809400   -0.40586400
 H                  5.07491300    1.24809200   -0.40586700
 H                  2.97667600    2.46903000    0.06715400
 H                  0.81404900   -2.54344400    0.78881100
 H                  0.02293600   -1.15401500    1.49746300
 H                 -0.81404900   -2.54344400   -0.78880800
 H                 -0.02293600   -1.15401600   -1.49746100
 H                 -2.97667600    2.46903000   -0.06715400
 H                 -5.07491300    1.24809300    0.40586400
 H                 -5.07491300   -1.24809400    0.40586200
 H                 -2.97667500   -2.46903000   -0.06715700
 H                 -0.02293800    1.15401800   -1.49746200
 H                 -0.81405100    2.54344500   -0.78880600
 H                  0.81405200    2.54344500    0.78880800
 H                  0.02293700    1.15401800    1.49746300

C H 0
6-31G(d)
****

C 0
C 3 0
F an up
4
 2 0.204353696 0.000103405
 2 0.106552301 -0.000068461
 2 0.103629038 0.001279009
 2 0.010449572 -0.000001033
S-F
2
 2 0.043390720 0.000020668
 2 0.117045600 0.056519710
P-F
2
 2 0.064526518 -0.000013344
 2 0.123222363 -0.021488594
D-F
1
 2 0.066381605 -0.010148271
O 0
O 3 0
F an up
3
 2 0.229218952 0.002292912
 2 0.097343149 -0.000574884
 2 0.008021004 -0.000000082
S-F
1
 2 0.197820377 -0.000157070
P-F
1
 2 0.106145399 -0.000206907
D-F
1
 2 0.057393876 -0.000113868
N 0
N 3 0
F an up
3
 2 0.124536834 0.000375000
 2 0.030918400 -0.000033729
 2 0.005040192 -0.000000020
S-F
1
 2 0.066204887 -0.000950120
P-F
1
 2 0.056034679 -0.000534017
D-F
1
 2 0.013845593 -0.000127395
H 0
H 1 0
P an up
3
 2 0.112790145 0.000226456
 2 0.043193200 -0.000068835
 2 0.005733838 -0.000000390
S-P
1
 2 0.184641561 -0.000052055